<number of tasks>
50

<cycle time>
1000

<order strength>
0.896


<task times>
1 86
2 128
3 164
4 182
5 77
6 335
7 83
8 226
9 549
10 207
11 489
12 45
13 131
14 317
15 392
16 159
17 504
18 333
19 114
20 635
21 519
22 122
23 512
24 139
25 43
26 493
27 246
28 532
29 143
30 414
31 140
32 182
33 100
34 93
35 299
36 159
37 162
38 269
39 210
40 505
41 229
42 247
43 275
44 56
45 506
46 166
47 244
48 110
49 230
50 280

<precedence relations>
1,4
1,5
1,6
1,7
2,4
2,5
2,6
2,7
3,4
3,5
3,6
3,7
4,8
4,9
4,10
5,8
5,9
5,10
6,8
6,9
6,10
7,8
7,9
7,10
8,11
8,12
8,13
8,14
9,11
9,12
9,13
9,14
10,11
10,12
10,13
10,14
11,15
11,16
11,17
12,15
12,16
12,17
13,15
13,16
13,17
14,15
14,16
14,17
15,18
15,19
15,20
16,18
16,19
16,20
17,18
17,19
17,20
18,22
18,23
19,22
20,21
20,22
20,23
21,24
21,25
21,26
22,24
22,25
22,26
23,24
23,25
23,26
24,27
24,28
25,27
25,28
26,27
27,29
27,30
28,29
28,35
29,36
29,46
30,31
30,32
30,33
31,36
31,37
32,34
32,35
32,36
32,39
33,34
33,35
34,38
34,40
36,43
36,50
37,38
37,39
38,41
38,42
38,43
39,40
40,41
40,42
40,43
41,45
42,44
43,44
44,48
45,46
45,47
46,48
46,49
46,50
47,48

<end>
